/*********************************************
 * OPL 12.6.0.0 Data
 * Author: Adrian Rodriguez Bazaga, Pau Rodriguez Esmerats
 * Creation Date: 01/12/2017 at 09:09:15
 *********************************************/

nNurses=588;
maxConsec=2;
maxPresence=7;
maxHours=5;
minHours=1;
demand= [110 105 175 170 105 175 170 109 124 73 15 16 23 26 26 22 17 13 11 10 102 183 84 159  ];
